compatibility = [|
    true,  true, false,  true,  true |
    true,  true, false,  true, false |
   false, false,  true,  true,  true |
    true,  true,  true,  true, false |
    true, false,  true, false,  true
|];
